decision_x1=[0,99];
decision_x2=[0,99];
decision_x3=[0,99];
decision_x4=[0,99];
decision_x5=[0,99];
decision_x6=[0,99];
decision_x7=[0,99];
decision_x8=[0,99];
decision_x9=[0,99];
decision_x10=[0,99];
random_y1=[0,99];
random_y2=[0,99];
random_y3=[0,99];
random_y4=[0,99];
random_y5=[0,99];
random_y6=[0,99];
random_y7=[0,99];
random_y8=[0,99];
random_y9=[0,99];
random_y10=[0,99];
function(x4,x3)=-1.74805x4^2 -2.06157x4 4.3295x3^2 -6.06424x3 -8.49638x4x3 3.88681;
function(x5,x4)=6.02709x5^2 9.86085x5 4.4592x4^2 -8.2565x4 6.24821x5x4 -4.16008;
function(x6,x2)=1.31801x6^2 -7.55884x6 -4.36422x2^2 5.15894x2 -9.33806x6x2 8.96411;
function(x7,x1)=-3.92085x7^2 -4.01522x7 -6.25444x1^2 2.27004x1 -1.62638x7x1 8.15223;
function(x8,x3)=9.13979x8^2 -7.09825x8 4.71838x3^2 -1.49468x3 6.40808x8x3 -3.12663;
function(x9,x3)=-7.26613x9^2 -1.89394x9 8.29594x3^2 3.19388x3 9.38965x9x3 9.94444;
function(x10,x2)=-9.27475x10^2 -3.39822x10 -3.00698x2^2 2.82616x2 9.08434x10x2 -1.08058;
function(x10,x7)=-4.13238x10^2 9.69382x10 -3.5836x7^2 1.54662x7 1.14456x10x7 -6.76966;
function(x10,x8)=-8.13555x10^2 8.98844x10 9.2107x8^2 6.49701x8 2.83705x10x8 -6.94897;
function(x1,y1)=9.00453x1^2 -4.83118x1 -8.1242y1^2 -7.58021y1 6.07309x1y1 -7.47269;
function(x2,y2)=-8.02243x2^2 -7.73433x2 2.3103y2^2 -9.5667y2 9.43947x2y2 -6.41792;
function(x3,y3)=-3.0301x3^2 -7.70436x3 7.64654y3^2 -8.68478y3 -3.67766x3y3 1.31707;
function(x4,y4)=-4.10766x4^2 3.65609x4 5.10445y4^2 2.05221y4 -3.31894x4y4 9.74709;
function(x5,y5)=-8.64982x5^2 7.56283x5 -4.57041y5^2 8.12274y5 -4.87875x5y5 1.45325;
function(x6,y6)=-4.53823x6^2 3.31037x6 9.31972y6^2 3.23292y6 4.62342x6y6 -4.03515;
function(x7,y7)=-6.65839x7^2 -2.09949x7 -5.74704y7^2 7.33742y7 2.10627x7y7 6.76852;
function(x8,y8)=7.66818x8^2 -1.20439x8 -9.65935y8^2 -2.92453y8 4.01844x8y8 -6.31786;
function(x9,y9)=-9.81519x9^2 5.60669x9 -4.68182y9^2 2.10143y9 3.36837x9y9 9.50748;
function(x10,y10)=4.32189x10^2 -9.48017x10 1.2446y10^2 -2.79695y10 -7.09626x10y10 2.56116;
neighbor_set_x1=x7 ;
neighbor_set_x10=x2 x7 x8 ;
neighbor_set_x2=x10 x6 ;
neighbor_set_x3=x4 x8 x9 ;
neighbor_set_x4=x3 x5 ;
neighbor_set_x5=x4 ;
neighbor_set_x6=x2 ;
neighbor_set_x7=x1 x10 ;
neighbor_set_x8=x10 x3 ;
neighbor_set_x9=x3 ;
initial_distribution_y1=[alpha:9.4986,beta:5.84375];
initial_distribution_y2=[alpha:8.51293,beta:5.23771];
initial_distribution_y3=[alpha:5.40454,beta:5.90216];
initial_distribution_y4=[alpha:8.84239,beta:8.81659];
initial_distribution_y5=[alpha:9.62563,beta:6.3666];
initial_distribution_y6=[alpha:7.24272,beta:4.50599];
initial_distribution_y7=[alpha:7.46337,beta:7.24475];
initial_distribution_y8=[alpha:4.45067,beta:4.57257];
initial_distribution_y9=[alpha:9.3507,beta:8.88018];
initial_distribution_y10=[alpha:8.74189,beta:8.35747];
transition_y1=[alpha:5.56491];
transition_y2=[alpha:7.62954];
transition_y3=[alpha:6.02434];
transition_y4=[alpha:9.98328];
transition_y5=[alpha:7.77426];
transition_y6=[alpha:4.47417];
transition_y7=[alpha:7.68548];
transition_y8=[alpha:5.26534];
transition_y9=[alpha:5.91295];
transition_y10=[alpha:4.67042];
